NAME : single
TYPE : ATSP
DIMENSION : 14
EDGE_WEIGHT_TYPE : EXPLICIT
EDGE_WEIGHT_FORMAT : FULL_MATRIX
EDGE_WEIGHT_SECTION
0 600 900 1000 50200 1100 1100 1100 50300 500 500 200 200 300 
0 0 200 400 400 400 400 400 400 100 200 400 500 50000 
0 200 0 200 100 200 200 200 300 300 500 700 700 700 
0 400 100 0 200 300 400 400 400 500 700 900 900 50000 
0 400 200 200 0 300 300 400 400 500 600 900 900 50000 
0 400 200 300 300 0 100 200 300 500 50000 900 1000 50000 
0 400 200 400 300 100 0 200 100 500 700 1000 900 50000 
0 400 200 400 400 200 200 0 200 500 700 1000 900 50000 
0 400 300 400 400 300 100 200 0 400 600 800 900 50000 
0 100 300 500 500 500 500 500 400 0 100 300 400 50000 
0 200 500 700 600 50000 700 700 600 100 0 300 300 50000 
0 400 700 900 900 900 1000 1000 800 300 300 0 200 0 
0 500 700 900 900 1000 900 900 900 400 300 200 0 0 
0 50000 700 50000 50000 50000 50000 50000 50000 50000 50000 200 0 0 
